100	5
25	1000
20
30
10
40
20
20
20
10
20
30
40
20
10
10
20
20
20
20
40
10
10
40
30
10
20
30
20
10
10
10
20
10
10
30
20
40
10
30
10
30
20
10
20
10
10
10
10
10
10
30
19
3
5
16
16
19
23
20
19
17
9
3
6
17
16
16
9
21
27
23
14
8
5
8
16
31
7
27
30
13
10
9
14
18
2
28
13
19
25
6
13
14
3
23
6
26
35
9
15
3
40	50	0	960	0	0
25	85	591	874	10	1
22	75	73	350	10	2
22	85	473	588	10	3
20	80	418	913	10	1
20	85	40	390	10	1
18	75	249	646	10	1
15	75	281	438	10	2
15	80	272	581	10	1
10	35	236	625	10	1
10	40	470	687	10	1
8	40	33	510	10	1
8	45	166	399	10	2
5	35	359	911	10	1
5	45	35	457	10	2
2	40	39	538	10	3
0	40	214	415	10	3
0	45	359	909	10	2
44	5	338	451	10	3
42	10	205	422	10	1
42	15	511	682	10	2
40	5	158	391	10	2
40	15	263	606	10	3
38	5	45	522	10	1
38	15	598	883	10	3
35	5	348	904	10	1
95	30	509	668	10	1
95	35	57	664	10	3
92	30	68	349	10	3
90	35	131	376	10	2
88	30	114	497	10	3
88	35	102	347	10	1
87	30	564	797	10	1
85	25	51	673	10	1
85	35	462	631	10	3
67	85	396	905	10	3
65	85	43	712	10	2
65	82	530	703	10	3
62	80	131	544	10	1
60	80	36	800	10	3
60	85	233	544	10	2
58	75	207	664	10	1
55	80	33	624	10	3
55	85	549	718	10	1
55	82	62	491	10	1
20	82	37	677	10	2
18	80	435	662	10	2
2	45	38	366	10	2
42	5	636	904	10	2
42	12	423	576	10	1
72	35	471	662	10	3
55	20	281	490	10	1
25	30	109	360	10	1
20	50	284	585	10	3
55	60	568	753	10	2
30	60	421	896	10	3
50	35	404	829	10	1
30	25	347	566	10	1
15	10	380	902	10	2
10	20	42	466	10	3
15	60	613	894	10	2
45	65	230	405	10	3
65	35	29	587	10	3
65	20	39	353	10	1
45	30	20	497	10	2
35	40	11	570	10	3
41	37	423	828	10	1
64	42	112	543	10	3
40	60	441	902	10	2
31	52	9	532	10	1
35	69	211	930	10	1
65	55	201	400	10	1
63	65	27	382	10	1
2	60	255	436	10	1
20	20	427	913	10	1
5	5	183	400	10	3
60	12	162	493	10	2
23	3	360	900	10	3
8	56	195	654	10	1
6	68	258	565	10	3
47	47	426	942	10	3
49	58	369	460	10	3
27	43	85	338	10	3
37	31	19	326	10	3
57	29	304	605	10	1
63	23	318	489	10	1
21	24	332	485	10	1
12	24	365	472	10	3
24	58	100	539	10	1
67	5	565	897	10	3
37	47	324	513	10	2
49	42	651	906	10	3
53	43	14	669	10	2
61	52	298	928	10	1
57	48	385	518	10	3
56	37	20	299	10	3
55	54	538	705	10	2
4	18	546	667	10	2
26	52	109	354	10	3
26	35	170	565	10	1
31	67	262	930	10	2
81	10	0	960	5	4
86	28	0	960	5	4
9	69	0	960	5	4
72	47	0	960	5	4
21	82	0	960	5	4
0	0	0	0	0	
0	0	0	0	1	
0	0	0	0	1	
0	0	0	0	0	
0	0	0	0	0	
0	0	0	0	0	
0	0	1	0	0	
0	0	0	0	0	
0	0	0	0	0	
0	0	0	0	0	
0	0	0	0	0	
0	0	1	0	0	
0	0	0	0	0	
0	0	1	0	0	
0	0	1	0	0	
0	0	1	0	0	
0	0	1	0	0	
1	0	0	0	0	
0	0	0	0	0	
1	0	0	0	0	
1	0	0	0	0	
1	0	0	0	0	
0	0	0	0	0	
1	0	0	0	0	
0	0	0	0	0	
0	0	0	0	0	
0	1	0	0	0	
0	1	0	0	0	
0	1	0	0	0	
0	1	0	0	0	
0	0	0	0	0	
0	0	0	0	0	
0	0	0	0	0	
0	1	0	0	0	
0	0	0	1	0	
0	0	0	1	0	
0	0	0	1	0	
0	0	0	0	0	
0	0	0	1	0	
0	0	0	0	1	
0	0	0	0	0	
0	0	0	0	1	
0	0	0	0	0	
0	0	0	0	0	
0	0	0	0	1	
0	0	0	0	1	
0	0	1	0	0	
1	0	0	0	0	
0	0	0	0	0	
0	0	0	1	0	
0	0	0	0	0	
0	0	0	0	0	
0	0	1	0	0	
0	0	0	1	0	
0	0	1	0	0	
0	0	0	0	0	
0	0	0	0	0	
0	0	1	0	0	
0	0	1	0	0	
0	0	1	0	0	
0	0	0	0	1	
0	0	0	1	0	
0	0	0	0	0	
0	0	0	1	0	
0	0	0	1	0	
0	0	0	0	0	
0	0	0	1	0	
0	0	0	0	1	
0	0	0	0	0	
0	0	0	0	0	
0	0	0	0	0	
0	0	0	0	0	
0	0	0	0	0	
0	0	0	0	0	
0	0	1	0	0	
1	0	0	0	0	
1	0	0	0	0	
0	0	0	0	0	
0	0	1	0	0	
0	0	0	1	0	
0	0	0	1	0	
0	0	1	0	0	
0	0	0	1	0	
0	0	0	0	0	
0	0	0	0	0	
0	0	0	0	0	
0	0	1	0	0	
0	0	0	0	0	
1	0	0	0	0	
0	0	0	1	0	
0	0	0	1	0	
0	0	0	1	0	
0	0	0	0	0	
0	0	0	1	0	
0	0	0	1	0	
0	0	0	1	0	
0	0	1	0	0	
0	0	1	0	0	
0	0	0	0	0	
0	0	0	0	1	
